
  17    4
   1   1   1   1

   0   0   0   0   0   7 2 4 5 7 8 9 16 
   2   1   1   1   1   3   15   6   3
   6   0   0   1   0   3   12   11   10
   2   1   0   0   1   3   13   12   10
   10   1   1   1   0   3   12   11   10
   9   0   0   1   0   2   11   10
   3   1   1   1   0   2   13   10
   8   1   0   0   0   1   14
   3   1   1   0   0   1   11
   4   0   0   1   1   1   17
   6   0   1   0   1   1   17
   1   1   0   1   1   1   17
   5   1   1   0   1   1   17
   3   0   0   0   1   1   17
   4   0   0   1   1   1   17
   3   1   0   0   1   1   17
   0   0   0   0   0   0 
